p cnf 10 55
9 -8 -1 0
-2 -6 -9 0
-6 5 -10 0
-4 -7 5 0
-10 -6 -1 0
5 -7 -1 0
-8 -10 -1 0
-5 -1 -7 0
-1 -4 9 0
-7 -4 -2 0
-6 5 -8 0
-7 -1 -6 0
-8 -1 -7 0
-2 -1 -8 0
4 -1 9 0
9 3 5 0
-8 2 5 0
3 2 -6 0
9 -1 -6 0
9 5 -7 0
10 -6 -2 0
3 2 6 0
-6 3 5 0
9 3 2 0
-8 3 1 0
-9 -1 4 0
-6 -8 -10 0
6 9 3 0
-7 -1 9 0
-6 -4 3 0
-2 -1 -8 0
-8 -4 -10 0
-1 8 -4 0
-10 -7 -9 0
-7 9 3 0
-4 3 1 0
-1 9 4 0
-7 5 3 0
3 -6 -1 0
-8 -10 -6 0
-6 -10 2 0
-10 -1 -6 0
2 4 3 0
-1 -6 3 0
10 9 -6 0
-4 5 -10 0
3 -8 -1 0
1 2 -4 0
5 9 7 0
2 -4 -7 0
-2 -8 -1 0
-8 -4 -7 0
-4 5 3 0
-8 -4 5 0
-7 -10 3 0
%
0